4 
5  12 27 42 57 
6  12 27 42 57 
7  12 27 42 57 
8  12 27 42 57 
9  12 29 44 59 
10  14 29 44 59 
11  14 29 44 59 
12  14 29 44 59 
13  14 29 44 59 
14  14 26 41 57 
15  12 27 42 57 
16  12 27 42 57 
17  12 27 42 57 
18  12 27 42 
19  00 14 26 41 56 
20 
